p cnf 45 32
d 0.875 0.125
d 0.875 0.125
d 0.875 0.125
d 0.875 0.125
d 0.875 0.125
d 0.875 0.125
d 0.875 0.125
d 0.875 0.125
d 0.875 0.125
d 0.875 0.125
d 0.875 0.125
d 0.875 0.125
d 0.875 0.125
d 0.875 0.125
d 0.875 0.125
30
-35
44 -31 -0
31 -44 -0
40 -38 -2
38 -40 -2
42 -41 -4
41 -42 -4
30 -34 -6
34 -30 -6
36 -37 -8
37 -36 -8
39 -36 -10
36 -39 -10
33 -42 -12
42 -33 -12
32 -37 -14
37 -32 -14
36 -31 -16
31 -36 -16
34 -30 -18
30 -34 -18
39 -37 -20
37 -39 -20
35 -37 -22
37 -35 -22
36 -31 -24
31 -36 -24
44 -43 -26
43 -44 -26
31 -33 -28
33 -31 -28